200
400
317
316
315
314
311
311
307
306
306
305
305
305
304
303
301
299
295
294
294
293
291
290
289
288
286
285
282
281
277
276
273
270
270
270
269
267
267
265
264
261
261
261
253
252
251
249
248
246
244
244
244
242
235
235
235
234
232
231
228
227
226
225
224
224
224
223
222
221
220
220
219
218
216
216
215
215
213
213
211
208
207
206
206
205
204
203
202
199
198
198
196
194
192
192
191
191
186
185
185
184
184
183
183
182
182
180
179
179
178
176
175
174
171
171
170
170
169
169
165
165
164
163
161
160
160
158
157
157
157
155
154
153
152
152
151
147
147
146
146
144
143
143
140
139
139
139
138
136
134
134
133
133
132
131
129
129
128
126
126
125
125
124
122
122
122
122
121
121
118
117
115
114
114
114
112
110
108
108
104
100
100
97
96
94
94
92
92
92
90
86
86
85
85
84
83
83
82
82
81
80
